data/lp_files/q3/37_6.lp
\ Model foo
\ LP format - for model browsing. Use MPS format to capture full model detail.
Minimize
  z
Subject To
 allocateEach[1]: x[1,1] + x[2,1] = 1
 allocateEach[2]: x[1,2] + x[2,2] = 1
 allocateEach[3]: x[1,3] + x[2,3] = 1
 allocateEach[4]: x[1,4] + x[2,4] = 1
 allocateEach[5]: x[1,5] + x[2,5] = 1
 allocateEach[6]: x[1,6] + x[2,6] = 1
 allocateEach[7]: x[1,7] + x[2,7] = 1
 allocateEach[8]: x[1,8] + x[2,8] = 1
 allocateEach[9]: x[1,9] + x[2,9] = 1
 allocateEach[10]: x[1,10] + x[2,10] = 1
 allocateEach[11]: x[1,11] + x[2,11] = 1
 allocateEach[12]: x[1,12] + x[2,12] = 1
 allocateEach[13]: x[1,13] + x[2,13] = 1
 allocateEach[14]: x[1,14] + x[2,14] = 1
 allocateEach[15]: x[1,15] + x[2,15] = 1
 allocateEach[16]: x[1,16] + x[2,16] = 1
 allocateEach[17]: x[1,17] + x[2,17] = 1
 allocateAllCash: cashProportion[1] + cashProportion[2] = 1
 findWorstP[1,2]: z + 0.0414705455450266 cashProportion[1]
   - 0.0414705455450266 cashProportion[2] + 0.025691002965144 x[1,1]
   + 0.0200095382254754 x[1,2] + 0.0745951437991167 x[1,3]
   + 0.0106786654778444 x[1,4] + 0.0384639309930122 x[1,5]
   + 0.1034275405892965 x[1,6] + 0.0836046198187737 x[1,7]
   + 8.5014618367304626e-04 x[1,8] + 0.00531859746614967 x[1,9]
   + 0.0235449022331889 x[1,10] + 0.0846932216393307 x[1,11]
   + 0.073558380160491 x[1,12] + 0.0970410765753623 x[1,13]
   + 0.0979015903954217 x[1,14] + 0.0959421071184191 x[1,15]
   + 0.0813341074501835 x[1,16] + 0.0418748833640906 x[1,17]
   - 0.025691002965144 x[2,1] - 0.0200095382254754 x[2,2]
   - 0.0745951437991167 x[2,3] - 0.0106786654778444 x[2,4]
   - 0.0384639309930122 x[2,5] - 0.1034275405892965 x[2,6]
   - 0.0836046198187737 x[2,7] - 8.5014618367304626e-04 x[2,8]
   - 0.00531859746614967 x[2,9] - 0.0235449022331889 x[2,10]
   - 0.0846932216393307 x[2,11] - 0.073558380160491 x[2,12]
   - 0.0970410765753623 x[2,13] - 0.0979015903954217 x[2,14]
   - 0.0959421071184191 x[2,15] - 0.0813341074501835 x[2,16]
   - 0.0418748833640906 x[2,17] >= 0
 findWorstP[2,1]: z - 0.0468099049758929 cashProportion[1]
   + 0.0468099049758929 cashProportion[2] - 0.0505078874689884 x[1,1]
   - 0.0934091653793943 x[1,2] - 0.0610518185648083 x[1,3]
   - 0.0482142021251697 x[1,4] - 0.1007817254130974 x[1,5]
   - 0.0402799232317558 x[1,6] - 0.0446215419182699 x[1,7]
   - 0.0709872208959416 x[1,8] - 0.0748490380564527 x[1,9]
   - 0.0515494078547021 x[1,10] - 0.1093596404999298 x[1,11]
   - 0.0230538782006273 x[1,12] - 0.0496184992744465 x[1,13]
   - 0.0643636193418528 x[1,14] - 0.0241656134438047 x[1,15]
   - 0.0277933810794364 x[1,16] - 0.0185835322754295 x[1,17]
   + 0.0505078874689884 x[2,1] + 0.0934091653793943 x[2,2]
   + 0.0610518185648083 x[2,3] + 0.0482142021251697 x[2,4]
   + 0.1007817254130974 x[2,5] + 0.0402799232317558 x[2,6]
   + 0.0446215419182699 x[2,7] + 0.0709872208959416 x[2,8]
   + 0.0748490380564527 x[2,9] + 0.0515494078547021 x[2,10]
   + 0.1093596404999298 x[2,11] + 0.0230538782006273 x[2,12]
   + 0.0496184992744465 x[2,13] + 0.0643636193418528 x[2,14]
   + 0.0241656134438047 x[2,15] + 0.0277933810794364 x[2,16]
   + 0.0185835322754295 x[2,17] >= 0
Bounds
 z <= 1
 -infinity <= cashProportion[1] <= 1
 -infinity <= cashProportion[2] <= 1
Binaries
 x[1,1] x[1,2] x[1,3] x[1,4] x[1,5] x[1,6] x[1,7] x[1,8] x[1,9] x[1,10]
 x[1,11] x[1,12] x[1,13] x[1,14] x[1,15] x[1,16] x[1,17] x[2,1] x[2,2]
 x[2,3] x[2,4] x[2,5] x[2,6] x[2,7] x[2,8] x[2,9] x[2,10] x[2,11] x[2,12]
 x[2,13] x[2,14] x[2,15] x[2,16] x[2,17]
End
