data/mps_files/pEFS/37_6.mps
NAME foo
ROWS
 N  OBJ
 E  allocateEach[1]
 E  allocateEach[2]
 E  allocateEach[3]
 E  allocateEach[4]
 E  allocateEach[5]
 E  allocateEach[6]
 E  allocateEach[7]
 E  allocateEach[8]
 E  allocateEach[9]
 E  allocateEach[10]
 E  allocateEach[11]
 E  allocateEach[12]
 E  allocateEach[13]
 E  allocateEach[14]
 E  allocateEach[15]
 E  allocateEach[16]
 E  allocateEach[17]
 E  allocateAllCash
 G  findWorstP[1,2]
 G  findWorstP[2,1]
COLUMNS
    z         OBJ       1
    z         findWorstP[1,2]  1
    z         findWorstP[2,1]  1
    cashProportion[1]  allocateAllCash  1
    cashProportion[1]  findWorstP[1,2]  4.1470545545026646e-02
    cashProportion[1]  findWorstP[2,1]  -4.6809904975892908e-02
    cashProportion[2]  allocateAllCash  1
    cashProportion[2]  findWorstP[1,2]  -4.1470545545026646e-02
    cashProportion[2]  findWorstP[2,1]  4.6809904975892908e-02
    MARKER    'MARKER'                 'INTORG'
    x[1,1]    allocateEach[1]  1
    x[1,1]    findWorstP[1,2]  2.5691002965144004e-02
    x[1,1]    findWorstP[2,1]  -5.0507887468988440e-02
    x[1,2]    allocateEach[2]  1
    x[1,2]    findWorstP[1,2]  2.0009538225475357e-02
    x[1,2]    findWorstP[2,1]  -9.3409165379394282e-02
    x[1,3]    allocateEach[3]  1
    x[1,3]    findWorstP[1,2]  7.4595143799116678e-02
    x[1,3]    findWorstP[2,1]  -6.1051818564808326e-02
    x[1,4]    allocateEach[4]  1
    x[1,4]    findWorstP[1,2]  1.0678665477844360e-02
    x[1,4]    findWorstP[2,1]  -4.8214202125169685e-02
    x[1,5]    allocateEach[5]  1
    x[1,5]    findWorstP[1,2]  3.8463930993012214e-02
    x[1,5]    findWorstP[2,1]  -1.0078172541309742e-01
    x[1,6]    allocateEach[6]  1
    x[1,6]    findWorstP[1,2]  1.0342754058929646e-01
    x[1,6]    findWorstP[2,1]  -4.0279923231755846e-02
    x[1,7]    allocateEach[7]  1
    x[1,7]    findWorstP[1,2]  8.3604619818773721e-02
    x[1,7]    findWorstP[2,1]  -4.4621541918269905e-02
    x[1,8]    allocateEach[8]  1
    x[1,8]    findWorstP[1,2]  8.5014618367304626e-04
    x[1,8]    findWorstP[2,1]  -7.0987220895941588e-02
    x[1,9]    allocateEach[9]  1
    x[1,9]    findWorstP[1,2]  5.3185974661496670e-03
    x[1,9]    findWorstP[2,1]  -7.4849038056452738e-02
    x[1,10]   allocateEach[10]  1
    x[1,10]   findWorstP[1,2]  2.3544902233188877e-02
    x[1,10]   findWorstP[2,1]  -5.1549407854702058e-02
    x[1,11]   allocateEach[11]  1
    x[1,11]   findWorstP[1,2]  8.4693221639330657e-02
    x[1,11]   findWorstP[2,1]  -1.0935964049992979e-01
    x[1,12]   allocateEach[12]  1
    x[1,12]   findWorstP[1,2]  7.3558380160491016e-02
    x[1,12]   findWorstP[2,1]  -2.3053878200627254e-02
    x[1,13]   allocateEach[13]  1
    x[1,13]   findWorstP[1,2]  9.7041076575362345e-02
    x[1,13]   findWorstP[2,1]  -4.9618499274446476e-02
    x[1,14]   allocateEach[14]  1
    x[1,14]   findWorstP[1,2]  9.7901590395421650e-02
    x[1,14]   findWorstP[2,1]  -6.4363619341852751e-02
    x[1,15]   allocateEach[15]  1
    x[1,15]   findWorstP[1,2]  9.5942107118419134e-02
    x[1,15]   findWorstP[2,1]  -2.4165613443804711e-02
    x[1,16]   allocateEach[16]  1
    x[1,16]   findWorstP[1,2]  0.0813341074501835
    x[1,16]   findWorstP[2,1]  -2.7793381079436408e-02
    x[1,17]   allocateEach[17]  1
    x[1,17]   findWorstP[1,2]  4.1874883364090648e-02
    x[1,17]   findWorstP[2,1]  -1.8583532275429481e-02
    x[2,1]    allocateEach[1]  1
    x[2,1]    findWorstP[1,2]  -2.5691002965144004e-02
    x[2,1]    findWorstP[2,1]  5.0507887468988440e-02
    x[2,2]    allocateEach[2]  1
    x[2,2]    findWorstP[1,2]  -2.0009538225475357e-02
    x[2,2]    findWorstP[2,1]  9.3409165379394282e-02
    x[2,3]    allocateEach[3]  1
    x[2,3]    findWorstP[1,2]  -7.4595143799116678e-02
    x[2,3]    findWorstP[2,1]  6.1051818564808326e-02
    x[2,4]    allocateEach[4]  1
    x[2,4]    findWorstP[1,2]  -1.0678665477844360e-02
    x[2,4]    findWorstP[2,1]  4.8214202125169685e-02
    x[2,5]    allocateEach[5]  1
    x[2,5]    findWorstP[1,2]  -3.8463930993012214e-02
    x[2,5]    findWorstP[2,1]  1.0078172541309742e-01
    x[2,6]    allocateEach[6]  1
    x[2,6]    findWorstP[1,2]  -1.0342754058929646e-01
    x[2,6]    findWorstP[2,1]  4.0279923231755846e-02
    x[2,7]    allocateEach[7]  1
    x[2,7]    findWorstP[1,2]  -8.3604619818773721e-02
    x[2,7]    findWorstP[2,1]  4.4621541918269905e-02
    x[2,8]    allocateEach[8]  1
    x[2,8]    findWorstP[1,2]  -8.5014618367304626e-04
    x[2,8]    findWorstP[2,1]  7.0987220895941588e-02
    x[2,9]    allocateEach[9]  1
    x[2,9]    findWorstP[1,2]  -5.3185974661496670e-03
    x[2,9]    findWorstP[2,1]  7.4849038056452738e-02
    x[2,10]   allocateEach[10]  1
    x[2,10]   findWorstP[1,2]  -2.3544902233188877e-02
    x[2,10]   findWorstP[2,1]  5.1549407854702058e-02
    x[2,11]   allocateEach[11]  1
    x[2,11]   findWorstP[1,2]  -8.4693221639330657e-02
    x[2,11]   findWorstP[2,1]  1.0935964049992979e-01
    x[2,12]   allocateEach[12]  1
    x[2,12]   findWorstP[1,2]  -7.3558380160491016e-02
    x[2,12]   findWorstP[2,1]  2.3053878200627254e-02
    x[2,13]   allocateEach[13]  1
    x[2,13]   findWorstP[1,2]  -9.7041076575362345e-02
    x[2,13]   findWorstP[2,1]  4.9618499274446476e-02
    x[2,14]   allocateEach[14]  1
    x[2,14]   findWorstP[1,2]  -9.7901590395421650e-02
    x[2,14]   findWorstP[2,1]  6.4363619341852751e-02
    x[2,15]   allocateEach[15]  1
    x[2,15]   findWorstP[1,2]  -9.5942107118419134e-02
    x[2,15]   findWorstP[2,1]  2.4165613443804711e-02
    x[2,16]   allocateEach[16]  1
    x[2,16]   findWorstP[1,2]  -0.0813341074501835
    x[2,16]   findWorstP[2,1]  2.7793381079436408e-02
    x[2,17]   allocateEach[17]  1
    x[2,17]   findWorstP[1,2]  -4.1874883364090648e-02
    x[2,17]   findWorstP[2,1]  1.8583532275429481e-02
    MARKER    'MARKER'                 'INTEND'
RHS
    RHS1      allocateEach[1]  1
    RHS1      allocateEach[2]  1
    RHS1      allocateEach[3]  1
    RHS1      allocateEach[4]  1
    RHS1      allocateEach[5]  1
    RHS1      allocateEach[6]  1
    RHS1      allocateEach[7]  1
    RHS1      allocateEach[8]  1
    RHS1      allocateEach[9]  1
    RHS1      allocateEach[10]  1
    RHS1      allocateEach[11]  1
    RHS1      allocateEach[12]  1
    RHS1      allocateEach[13]  1
    RHS1      allocateEach[14]  1
    RHS1      allocateEach[15]  1
    RHS1      allocateEach[16]  1
    RHS1      allocateEach[17]  1
    RHS1      allocateAllCash  1
BOUNDS
 UP BND1      z         1
 MI BND1      cashProportion[1]
 UP BND1      cashProportion[1]  1
 MI BND1      cashProportion[2]
 UP BND1      cashProportion[2]  1
 BV BND1      x[1,1]  
 BV BND1      x[1,2]  
 BV BND1      x[1,3]  
 BV BND1      x[1,4]  
 BV BND1      x[1,5]  
 BV BND1      x[1,6]  
 BV BND1      x[1,7]  
 BV BND1      x[1,8]  
 BV BND1      x[1,9]  
 BV BND1      x[1,10] 
 BV BND1      x[1,11] 
 BV BND1      x[1,12] 
 BV BND1      x[1,13] 
 BV BND1      x[1,14] 
 BV BND1      x[1,15] 
 BV BND1      x[1,16] 
 BV BND1      x[1,17] 
 BV BND1      x[2,1]  
 BV BND1      x[2,2]  
 BV BND1      x[2,3]  
 BV BND1      x[2,4]  
 BV BND1      x[2,5]  
 BV BND1      x[2,6]  
 BV BND1      x[2,7]  
 BV BND1      x[2,8]  
 BV BND1      x[2,9]  
 BV BND1      x[2,10] 
 BV BND1      x[2,11] 
 BV BND1      x[2,12] 
 BV BND1      x[2,13] 
 BV BND1      x[2,14] 
 BV BND1      x[2,15] 
 BV BND1      x[2,16] 
 BV BND1      x[2,17] 
ENDATA
